
  32    1
  10

   0   0   4 2 3 5 6 
   2   3   3 12 7 4 
   6   3   5 15 13 12 10 9 
   3   5   4 15 13 9 8 
   7   7   4 15 12 10 9 
   1  10   4 14 13 12 10 
   5   8   4 15 14 13 11 
   2   8   1 10 
  10  10   3 18 16 14 
   5  10   1 11 
   6   8   4 19 18 17 16 
   3   6   4 19 18 17 16 
   5   7   4 25 20 19 16 
   4  10   3 20 19 17 
   9  10   3 25 19 16 
   1   6   4 31 24 22 21 
   8   9   4 31 25 22 21 
   3  10   2 31 20 
   8  10   3 30 24 23 
   8   6   3 30 24 23 
   3   5   4 30 29 28 26 
   5  10   1 23 
   7  10   3 29 28 26 
   8   8   3 29 28 26 
   1  10   3 30 28 26 
   3  10   1 27 
   1  10   1 32
   9   8   1 32
   8   5   1 32
   7  10   1 32
   5   8   1 32
   0   0   0 
